BAYES
324
2 2 2 2 2 2 2 2 2 2 2 2 2 2 2 2 2 2 2 2 2 2 2 2 2 2 2 2 2 2 2 2 2 2 2 2 2 2 2 2 2 2 2 2 2 2 2 2 2 2 2 2 2 2 2 2 2 2 2 2 2 2 2 2 2 2 2 2 2 2 2 2 2 2 2 2 2 2 2 2 2 2 2 2 2 2 2 2 2 2 2 2 2 2 2 2 2 2 2 2 2 2 2 2 2 2 2 2 2 2 2 2 2 2 2 2 2 2 2 2 2 2 2 2 2 2 2 2 2 2 2 2 2 2 2 2 2 2 2 2 2 2 2 2 2 2 2 2 2 2 2 2 2 2 2 2 2 2 2 2 2 2 2 2 2 2 2 2 2 2 2 2 2 2 2 2 2 2 2 2 2 2 2 2 2 2 2 2 2 2 2 2 2 2 2 2 2 2 2 2 2 2 2 2 2 2 2 2 2 2 2 2 2 2 2 2 2 2 2 2 2 2 2 2 2 2 2 2 2 2 2 2 2 2 2 2 2 2 2 2 2 2 2 2 2 2 2 2 2 2 2 2 2 2 2 2 2 2 2 2 2 2 2 2 2 2 2 2 2 2 2 2 2 2 2 2 2 2 2 2 2 2 2 2 2 2 2 2 2 2 2 2 2 2 2 2 2 2 2 2 2 2 2 2 2 2 2 2 2 2 2 2 2 2 2 2 2 2 2 2 2 2 2 2
324
1 0
2 0 1
2 1 2
2 2 3
2 3 4
2 4 5
2 5 6
2 6 7
2 7 8
2 8 9
2 9 10
2 10 11
2 11 12
2 12 13
2 13 14
2 14 15
2 15 16
2 16 17
2 0 18
3 1 18 19
3 2 19 20
3 3 20 21
3 4 21 22
3 5 22 23
3 6 23 24
3 7 24 25
3 8 25 26
3 9 26 27
3 10 27 28
3 11 28 29
3 12 29 30
3 13 30 31
3 14 31 32
3 15 32 33
3 16 33 34
3 17 34 35
2 18 36
3 19 36 37
3 20 37 38
3 21 38 39
3 22 39 40
3 23 40 41
3 24 41 42
3 25 42 43
3 26 43 44
3 27 44 45
3 28 45 46
3 29 46 47
3 30 47 48
3 31 48 49
3 32 49 50
3 33 50 51
3 34 51 52
3 35 52 53
2 36 54
3 37 54 55
3 38 55 56
3 39 56 57
3 40 57 58
3 41 58 59
3 42 59 60
3 43 60 61
3 44 61 62
3 45 62 63
3 46 63 64
3 47 64 65
3 48 65 66
3 49 66 67
3 50 67 68
3 51 68 69
3 52 69 70
3 53 70 71
2 54 72
3 55 72 73
3 56 73 74
3 57 74 75
3 58 75 76
3 59 76 77
3 60 77 78
3 61 78 79
3 62 79 80
3 63 80 81
3 64 81 82
3 65 82 83
3 66 83 84
3 67 84 85
3 68 85 86
3 69 86 87
3 70 87 88
3 71 88 89
2 72 90
3 73 90 91
3 74 91 92
3 75 92 93
3 76 93 94
3 77 94 95
3 78 95 96
3 79 96 97
3 80 97 98
3 81 98 99
3 82 99 100
3 83 100 101
3 84 101 102
3 85 102 103
3 86 103 104
3 87 104 105
3 88 105 106
3 89 106 107
2 90 108
3 91 108 109
3 92 109 110
3 93 110 111
3 94 111 112
3 95 112 113
3 96 113 114
3 97 114 115
3 98 115 116
3 99 116 117
3 100 117 118
3 101 118 119
3 102 119 120
3 103 120 121
3 104 121 122
3 105 122 123
3 106 123 124
3 107 124 125
2 108 126
3 109 126 127
3 110 127 128
3 111 128 129
3 112 129 130
3 113 130 131
3 114 131 132
3 115 132 133
3 116 133 134
3 117 134 135
3 118 135 136
3 119 136 137
3 120 137 138
3 121 138 139
3 122 139 140
3 123 140 141
3 124 141 142
3 125 142 143
2 126 144
3 127 144 145
3 128 145 146
3 129 146 147
3 130 147 148
3 131 148 149
3 132 149 150
3 133 150 151
3 134 151 152
3 135 152 153
3 136 153 154
3 137 154 155
3 138 155 156
3 139 156 157
3 140 157 158
3 141 158 159
3 142 159 160
3 143 160 161
2 144 162
3 145 162 163
3 146 163 164
3 147 164 165
3 148 165 166
3 149 166 167
3 150 167 168
3 151 168 169
3 152 169 170
3 153 170 171
3 154 171 172
3 155 172 173
3 156 173 174
3 157 174 175
3 158 175 176
3 159 176 177
3 160 177 178
3 161 178 179
2 162 180
3 163 180 181
3 164 181 182
3 165 182 183
3 166 183 184
3 167 184 185
3 168 185 186
3 169 186 187
3 170 187 188
3 171 188 189
3 172 189 190
3 173 190 191
3 174 191 192
3 175 192 193
3 176 193 194
3 177 194 195
3 178 195 196
3 179 196 197
2 180 198
3 181 198 199
3 182 199 200
3 183 200 201
3 184 201 202
3 185 202 203
3 186 203 204
3 187 204 205
3 188 205 206
3 189 206 207
3 190 207 208
3 191 208 209
3 192 209 210
3 193 210 211
3 194 211 212
3 195 212 213
3 196 213 214
3 197 214 215
2 198 216
3 199 216 217
3 200 217 218
3 201 218 219
3 202 219 220
3 203 220 221
3 204 221 222
3 205 222 223
3 206 223 224
3 207 224 225
3 208 225 226
3 209 226 227
3 210 227 228
3 211 228 229
3 212 229 230
3 213 230 231
3 214 231 232
3 215 232 233
2 216 234
3 217 234 235
3 218 235 236
3 219 236 237
3 220 237 238
3 221 238 239
3 222 239 240
3 223 240 241
3 224 241 242
3 225 242 243
3 226 243 244
3 227 244 245
3 228 245 246
3 229 246 247
3 230 247 248
3 231 248 249
3 232 249 250
3 233 250 251
2 234 252
3 235 252 253
3 236 253 254
3 237 254 255
3 238 255 256
3 239 256 257
3 240 257 258
3 241 258 259
3 242 259 260
3 243 260 261
3 244 261 262
3 245 262 263
3 246 263 264
3 247 264 265
3 248 265 266
3 249 266 267
3 250 267 268
3 251 268 269
2 252 270
3 253 270 271
3 254 271 272
3 255 272 273
3 256 273 274
3 257 274 275
3 258 275 276
3 259 276 277
3 260 277 278
3 261 278 279
3 262 279 280
3 263 280 281
3 264 281 282
3 265 282 283
3 266 283 284
3 267 284 285
3 268 285 286
3 269 286 287
2 270 288
3 271 288 289
3 272 289 290
3 273 290 291
3 274 291 292
3 275 292 293
3 276 293 294
3 277 294 295
3 278 295 296
3 279 296 297
3 280 297 298
3 281 298 299
3 282 299 300
3 283 300 301
3 284 301 302
3 285 302 303
3 286 303 304
3 287 304 305
2 288 306
3 289 306 307
3 290 307 308
3 291 308 309
3 292 309 310
3 293 310 311
3 294 311 312
3 295 312 313
3 296 313 314
3 297 314 315
3 298 315 316
3 299 316 317
3 300 317 318
3 301 318 319
3 302 319 320
3 303 320 321
3 304 321 322
3 305 322 323
2
0 1
4
1 0 1 0
4
1 0 1 0
4
0 1 0 1
4
0 1 0 1
4
0 1 0 1
4
0 1 0 1
4
0 1 0 1
4
0.4503107421111632 0.5496892578888368 0.011121670517321451 0.9888783294826785
4
1 0 1 0
4
0 1 1 0
4
0 1 1 0
4
0.030770686077278165 0.9692293139227218 0.46888229044586394 0.531117709554136
4
1 0 0 1
4
0 1 0 1
4
1 0 1 0
4
0 1 1 0
4
0 1 1 0
4
0.7186069974479864 0.28139300255201355 0.49369764261830623 0.5063023573816937
8
0 1 1 0 0 1 1 0
8
1 0 1 0 0 1 1 0
8
1 0 0 1 1 0 0 1
8
0 1 0 1 1 0 0 1
8
1 0 1 0 1 0 0 1
8
0 1 1 0 1 0 1 0
8
1 0 0 1 1 0 1 0
8
1 0 1 0 0 1 0 1
8
1 0 1 0 1 0 1 0
8
1 0 1 0 1 0 1 0
8
1 0 1 0 0 1 1 0
8
1 0 1 0 0 1 0 1
8
1 0 0 1 1 0 1 0
8
0.6560444133942863 0.34395558660571374 0.5856548837027902 0.4143451162972099 0.587688445028511 0.4123115549714889 0.5074707151026749 0.492529284897325
8
1 0 0 1 0 1 1 0
8
0.1942816899671247 0.8057183100328753 0.05425675058561405 0.9457432494143859 0.9518449195925756 0.04815508040742448 0.5473383105169327 0.4526616894830674
8
1 0 1 0 0 1 1 0
4
0 1 0 1
8
1 0 0 1 1 0 1 0
8
0 1 1 0 0 1 0 1
8
1 0 1 0 0 1 1 0
8
0 1 0 1 0 1 1 0
8
0 1 1 0 1 0 0 1
8
0 1 0 1 1 0 0 1
8
1 0 0 1 0 1 0 1
8
1 0 0 1 1 0 1 0
8
1 0 0 1 0 1 1 0
8
0 1 0 1 1 0 1 0
8
0.8785189571178375 0.1214810428821627 0.6320156586376123 0.3679843413623877 0.3632637401733773 0.6367362598266226 0.8355242393938376 0.1644757606061624
8
0 1 1 0 0 1 1 0
8
1 0 1 0 0 1 1 0
8
0 1 1 0 1 0 1 0
8
0 1 1 0 0 1 0 1
8
0 1 1 0 0 1 0 1
8
0 1 0 1 1 0 0 1
4
0 1 1 0
8
0 1 0 1 1 0 1 0
8
0 1 1 0 1 0 1 0
8
0 1 0 1 1 0 1 0
8
0 1 1 0 1 0 0 1
8
1 0 1 0 0 1 0 1
8
0 1 1 0 0 1 1 0
8
0 1 1 0 1 0 0 1
8
1 0 1 0 0 1 0 1
8
0 1 1 0 0 1 1 0
8
0 1 0 1 0 1 1 0
8
0 1 0 1 1 0 0 1
8
1 0 1 0 1 0 0 1
8
0.7298677383726574 0.2701322616273426 0.8676355372241213 0.13236446277587866 0.6107403992633889 0.3892596007366112 0.42881879128314043 0.5711812087168597
8
0 1 0 1 1 0 1 0
8
1 0 1 0 1 0 0 1
8
0 1 0 1 1 0 0 1
8
1 0 0 1 0 1 1 0
4
0.7040879345593171 0.29591206544068294 0.6936372440322225 0.3063627559677777
8
0.2990777245553065 0.7009222754446935 0.49396510256443615 0.506034897435564 0.55538656319759 0.44461343680240994 0.07311851369621176 0.9268814863037882
8
1 0 0 1 0 1 1 0
8
0 1 1 0 1 0 0 1
8
1 0 1 0 1 0 1 0
8
0 1 1 0 0 1 1 0
8
0 1 1 0 0 1 0 1
8
0 1 1 0 0 1 0 1
8
0 1 0 1 0 1 1 0
8
0.5528238447408261 0.44717615525917387 0.6250812961051645 0.3749187038948355 0.5816262453501748 0.4183737546498252 0.6262818720784464 0.3737181279215535
8
0 1 0 1 1 0 1 0
8
0 1 1 0 1 0 0 1
8
0 1 0 1 0 1 0 1
8
1 0 1 0 1 0 1 0
8
0 1 1 0 0 1 0 1
8
0 1 1 0 0 1 0 1
8
1 0 1 0 0 1 1 0
8
1 0 1 0 0 1 1 0
4
0 1 1 0
8
1 0 1 0 1 0 0 1
8
1 0 0 1 0 1 1 0
8
0 1 1 0 1 0 1 0
8
1 0 1 0 1 0 0 1
8
0 1 1 0 0 1 1 0
8
1 0 1 0 1 0 1 0
8
0 1 1 0 0 1 0 1
8
1 0 1 0 1 0 0 1
8
1 0 1 0 1 0 1 0
8
0.06839855166900434 0.9316014483309957 0.43127237107143906 0.5687276289285609 0.5978044974095745 0.4021955025904255 0.5551527253948485 0.44484727460515144
8
0.16045213092863256 0.8395478690713675 0.04299372548991799 0.957006274510082 0.16007775591747817 0.8399222440825218 0.6004622909992209 0.3995377090007791
8
1 0 0 1 1 0 0 1
8
0 1 1 0 1 0 1 0
8
1 0 0 1 0 1 1 0
8
1 0 0 1 0 1 0 1
8
1 0 1 0 0 1 1 0
8
0 1 1 0 1 0 1 0
4
1 0 1 0
8
1 0 0 1 1 0 0 1
8
1 0 1 0 1 0 1 0
8
0 1 1 0 0 1 1 0
8
0 1 1 0 0 1 0 1
8
1 0 1 0 0 1 1 0
8
0 1 0 1 1 0 0 1
8
0 1 0 1 0 1 0 1
8
1 0 0 1 0 1 0 1
8
0.41603331239316205 0.5839666876068379 0.5121132895994341 0.4878867104005658 0.767096779778993 0.23290322022100693 0.44875984822095644 0.5512401517790435
8
0 1 1 0 0 1 0 1
8
1 0 1 0 1 0 0 1
8
0 1 0 1 1 0 0 1
8
1 0 1 0 1 0 1 0
8
1 0 1 0 0 1 1 0
8
0.36442032260006707 0.635579677399933 0.2574827582285235 0.7425172417714765 0.38923444913493577 0.6107655508650641 0.4396092630856875 0.5603907369143125
8
0.33868848488629827 0.6613115151137018 0.7071464018197575 0.2928535981802424 0.31659828544741214 0.6834017145525878 0.5031538336910566 0.49684616630894346
8
1 0 0 1 1 0 1 0
4
1 0 0 1
8
0.4783159010512175 0.5216840989487825 0.6838766223514993 0.31612337764850074 0.8234837648551333 0.17651623514486656 0.14455643013008915 0.8554435698699109
8
1 0 0 1 1 0 1 0
8
0 1 0 1 1 0 0 1
8
0.31882950722153836 0.6811704927784616 0.08417369879738493 0.9158263012026151 0.5111309327150253 0.4888690672849747 0.8287524244625984 0.17124757553740158
8
0 1 1 0 0 1 0 1
8
0 1 0 1 0 1 0 1
8
1 0 1 0 0 1 1 0
8
1 0 1 0 1 0 0 1
8
0 1 0 1 0 1 1 0
8
1 0 1 0 0 1 0 1
8
1 0 0 1 1 0 1 0
8
0 1 1 0 0 1 0 1
8
0 1 1 0 1 0 1 0
8
0 1 0 1 1 0 0 1
8
1 0 1 0 1 0 1 0
8
1 0 1 0 0 1 0 1
8
0 1 0 1 0 1 0 1
4
1 0 1 0
8
1 0 1 0 0 1 0 1
8
1 0 0 1 1 0 0 1
8
0.10415639754715503 0.8958436024528451 0.8782154376148885 0.12178456238511151 0.778543130307475 0.221456869692525 0.26975543319449 0.73024456680551
8
0 1 1 0 1 0 0 1
8
0 1 0 1 1 0 1 0
8
0 1 1 0 0 1 1 0
8
0 1 0 1 0 1 1 0
8
0 1 1 0 1 0 1 0
8
1 0 0 1 0 1 1 0
8
0.30174527778363697 0.6982547222163631 0.7216346103484305 0.27836538965156954 0.4014975929165393 0.5985024070834607 0.6403057427595664 0.35969425724043363
8
0 1 1 0 1 0 1 0
8
1 0 1 0 0 1 0 1
8
0 1 0 1 0 1 1 0
8
1 0 1 0 0 1 0 1
8
0 1 0 1 1 0 1 0
8
0.4873539049713999 0.5126460950286 0.3084799799088939 0.691520020091106 0.4939632147208717 0.5060367852791283 0.10993425469132555 0.8900657453086744
8
1 0 0 1 1 0 0 1
4
1 0 1 0
8
1 0 0 1 0 1 0 1
8
0 1 1 0 0 1 0 1
8
0 1 1 0 1 0 1 0
8
0 1 1 0 0 1 0 1
8
0 1 1 0 1 0 1 0
8
0 1 0 1 0 1 0 1
8
1 0 0 1 0 1 0 1
8
1 0 0 1 0 1 1 0
8
0 1 1 0 0 1 0 1
8
1 0 1 0 1 0 1 0
8
0 1 0 1 0 1 0 1
8
0.2554722022357482 0.7445277977642519 0.49593974615753167 0.5040602538424682 0.47336761217744777 0.5266323878225523 0.43879721351202555 0.5612027864879745
8
0 1 1 0 0 1 0 1
8
0 1 0 1 0 1 0 1
8
1 0 1 0 0 1 0 1
8
1 0 1 0 1 0 0 1
8
1 0 0 1 0 1 1 0
4
1 0 0 1
8
1 0 0 1 1 0 1 0
8
0.5866860471734987 0.4133139528265013 0.3171775484146195 0.6828224515853805 0.5602366711753779 0.43976332882462205 0.12499534965098769 0.8750046503490123
8
0 1 1 0 0 1 1 0
8
1 0 0 1 1 0 1 0
8
0 1 0 1 0 1 1 0
8
0 1 1 0 0 1 0 1
8
0 1 0 1 0 1 0 1
8
1 0 1 0 1 0 1 0
8
1 0 1 0 0 1 1 0
8
1 0 0 1 1 0 1 0
8
0 1 0 1 1 0 0 1
8
1 0 0 1 0 1 1 0
8
0.3629704258299041 0.637029574170096 0.36275248003674027 0.6372475199632597 0.7724662027704913 0.22753379722950876 0.960100680611769 0.03989931938823099
8
1 0 1 0 1 0 0 1
8
0.8821397948947344 0.11786020510526572 0.5268636630891896 0.47313633691081036 0.3404202186343964 0.6595797813656037 0.669014942871345 0.33098505712865495
8
0 1 1 0 0 1 0 1
8
0 1 1 0 1 0 1 0
4
0 1 1 0
8
1 0 0 1 0 1 0 1
8
1 0 0 1 0 1 1 0
8
0 1 0 1 1 0 1 0
8
0 1 1 0 0 1 1 0
8
1 0 0 1 0 1 1 0
8
1 0 0 1 1 0 0 1
8
0.6076815353603087 0.3923184646396913 0.9636915351284068 0.03630846487159318 0.007305099910380544 0.9926949000896195 0.4371973490978758 0.5628026509021242
8
1 0 0 1 1 0 1 0
8
1 0 1 0 0 1 1 0
8
1 0 1 0 1 0 1 0
8
0 1 0 1 1 0 1 0
8
0 1 0 1 1 0 0 1
8
1 0 1 0 0 1 0 1
8
0.39002421273352955 0.6099757872664705 0.6221127950043982 0.37788720499560186 0.32929080893631085 0.6707091910636891 0.8610298611449831 0.13897013885501688
8
0 1 1 0 0 1 1 0
8
0 1 1 0 1 0 1 0
8
0 1 0 1 0 1 0 1
4
0 1 1 0
8
1 0 0 1 1 0 0 1
8
0 1 1 0 1 0 0 1
8
0 1 1 0 0 1 0 1
8
0 1 1 0 1 0 1 0
8
1 0 0 1 0 1 0 1
8
0 1 0 1 0 1 0 1
8
1 0 1 0 1 0 1 0
8
0 1 0 1 0 1 0 1
8
0 1 0 1 0 1 0 1
8
0 1 1 0 0 1 1 0
8
0 1 1 0 0 1 0 1
8
0 1 1 0 1 0 0 1
8
0.637342665179875 0.36265733482012497 0.4502364307189871 0.5497635692810129 0.32435018703876367 0.6756498129612364 0.5645871949227041 0.43541280507729585
8
0 1 1 0 1 0 0 1
8
0 1 0 1 0 1 1 0
8
0 1 1 0 0 1 1 0
8
1 0 0 1 1 0 0 1
4
1 0 1 0
8
1 0 0 1 0 1 0 1
8
0 1 1 0 0 1 0 1
8
1 0 0 1 0 1 0 1
8
0 1 0 1 0 1 0 1
8
1 0 0 1 0 1 0 1
8
0 1 1 0 1 0 1 0
8
1 0 0 1 0 1 1 0
8
0.15946865236456623 0.8405313476354338 0.1947426190646493 0.8052573809353507 0.5178470957318025 0.48215290426819746 0.8467023808746106 0.15329761912538942
8
0 1 0 1 1 0 0 1
8
1 0 0 1 0 1 0 1
8
1 0 0 1 0 1 0 1
8
1 0 0 1 0 1 1 0
8
0 1 0 1 1 0 1 0
8
1 0 0 1 0 1 0 1
8
0 1 1 0 1 0 1 0
8
1 0 1 0 1 0 0 1
8
0 1 1 0 1 0 1 0
4
1 0 0 1
8
1 0 0 1 0 1 0 1
8
1 0 0 1 1 0 0 1
8
0.9655545948473322 0.03444540515266778 0.10256499951593571 0.8974350004840643 0.32057274259775786 0.6794272574022422 0.591913558949309 0.4080864410506911
8
0 1 0 1 0 1 0 1
8
0 1 0 1 0 1 1 0
8
0 1 0 1 0 1 0 1
8
1 0 1 0 1 0 1 0
8
0 1 0 1 1 0 1 0
8
1 0 1 0 0 1 0 1
8
0.49047635602872813 0.5095236439712718 0.23811954615531394 0.7618804538446861 0.16386600796785372 0.8361339920321463 0.2603037022552236 0.7396962977447764
8
1 0 0 1 1 0 1 0
8
1 0 0 1 1 0 1 0
8
0 1 0 1 0 1 0 1
8
0 1 1 0 0 1 1 0
8
0.6892013074661608 0.3107986925338392 0.6470079916736626 0.3529920083263375 0.8785273112992233 0.1214726887007767 0.43594477616491994 0.5640552238350801
8
1 0 1 0 0 1 0 1
8
1 0 1 0 1 0 1 0
4
1 0 0 1
8
1 0 0 1 1 0 0 1
8
0 1 1 0 1 0 1 0
8
0 1 1 0 1 0 1 0
8
1 0 1 0 0 1 1 0
8
0 1 1 0 1 0 1 0
8
0.07626541184395393 0.923734588156046 0.583419013172698 0.416580986827302 0.6976304406123709 0.3023695593876291 0.5640805456160646 0.4359194543839353
8
0 1 1 0 0 1 0 1
8
1 0 0 1 0 1 0 1
8
0 1 1 0 1 0 1 0
8
0 1 1 0 0 1 0 1
8
0 1 0 1 0 1 1 0
8
1 0 0 1 1 0 1 0
8
0 1 1 0 0 1 1 0
8
0 1 0 1 1 0 0 1
8
0 1 0 1 1 0 0 1
8
0 1 1 0 1 0 0 1
8
1 0 1 0 1 0 0 1
4
0.4381835860190085 0.5618164139809916 0.49720790387917213 0.5027920961208278
8
0 1 0 1 0 1 1 0
8
1 0 0 1 1 0 1 0
8
1 0 1 0 1 0 0 1
8
1 0 0 1 0 1 0 1
8
0 1 0 1 1 0 0 1
8
0 1 1 0 1 0 0 1
8
1 0 1 0 0 1 0 1
8
1 0 1 0 1 0 0 1
8
1 0 1 0 0 1 0 1
8
1 0 1 0 1 0 1 0
8
0 1 1 0 0 1 1 0
8
1 0 1 0 0 1 0 1
8
0 1 1 0 1 0 0 1
8
0 1 1 0 0 1 0 1
8
0 1 1 0 1 0 1 0
8
1 0 0 1 0 1 0 1
8
1 0 1 0 0 1 1 0
4
1 0 0 1
8
1 0 1 0 0 1 1 0
8
1 0 0 1 1 0 0 1
8
1 0 1 0 0 1 1 0
8
1 0 0 1 1 0 0 1
8
0 1 0 1 0 1 0 1
8
0 1 1 0 1 0 0 1
8
0 1 1 0 1 0 1 0
8
1 0 0 1 1 0 1 0
8
1 0 1 0 0 1 0 1
8
1 0 0 1 1 0 0 1
8
0 1 0 1 0 1 0 1
8
0 1 1 0 0 1 0 1
8
1 0 1 0 1 0 1 0
8
1 0 1 0 0 1 0 1
8
0 1 0 1 1 0 0 1
8
1 0 1 0 1 0 1 0
8
1 0 1 0 1 0 0 1
